5884
0 1 0 1 0 1 0 0 0 1 1 0 1 1 1 0 0 0 0 0 0 0 0 0 0 0 0 0 1 0 
10 10 10 10 10 10 10 1 1 28 1 1 1 1 28 3 3 3 3 3 3 5 5 5 5 5 5 9 9 9 9 13 9 9 10 3 3 5 3 28 28 12 12 10 14 14 14 14 13 28 10 13 13 1 3 14 13 28 14 14 12 12 28 14 14 13 14 13 3 12 
